W=5;
H=3;

MAX_TIME=6;
MAX_TRACKS=4;

TARGET=(3,5);

TRAINS=[(1,3,DOWN),(1,1,DOWN)];
DECOYS=[];

INIT_POS=[
(1,1,STRAIGHT_TD),
(1,2,ROCK),
(1,3,STRAIGHT_TD),
(2,2,ROCK),
(2,3,STRAIGHT_TD),
(3,4,STRAIGHT_RL),
(3,5,STRAIGHT_RL),
];
TUNNEL_PAIRS=[];

GATES=[];
ACTIVATIONS=[];

DSWITCHES=[];

STATIONS=[];
